num_wann=24
num_bands=64

dis_froz_max=9.0
dis_num_iter=6000
dis_conv_tol=1e-10
num_iter=0
num_print_cycles  = 10
bands_num_points = 100
bands_plot = .true.
wannier_plot = .false.
write_hr=T

Begin Kpoint_Path
A 0 0 0.5    G   0 0 0
G 0 0 0      H 0.333333 0.3333333 0.5
H 0.333333 0.3333333 0.5 A 0 0 0.5
A 0 0 0.5 L 0.5 0.0 0.5
L 0.5 0.0 0.5  H 0.333333 0.3333333 0.5
H 0.333333 0.3333333 0.5 K 0.333333 0.3333333 0.0
K 0.333333 0.3333333 0.0 G 0 0 0
G 0 0 0 M 0.5 0 0
M 0.5 0 0 K 0.333333 0.3333333 0.
End Kpoint_Path


begin projections
Te: s
Te:p
end projections


spinors = .true.

begin unit_cell_cart
     4.4570000     0.0000000     0.0000000
    -2.2285000     3.8598752     0.0000000
     0.0000000     0.0000000     5.9581176
end unit_cell_cart

begin atoms_cart
Te       0.6106090     1.0576058     0.0000000
Te       3.2357820     0.0000000     1.9860392
Te      -1.6178910     2.8022694     3.9720784
end atoms_cart

mp_grid =     6     6     4

begin kpoints
      0.000000000000      0.000000000000      0.000000000000
      0.166666666667      0.000000000000      0.000000000000
      0.333333333333     -0.000000000000      0.000000000000
      0.500000000000      0.000000000000      0.000000000000
     -0.333333333333      0.000000000000      0.000000000000
     -0.166666666667      0.000000000000      0.000000000000
      0.000000000000      0.166666666667      0.000000000000
      0.166666666667      0.166666666667      0.000000000000
      0.333333333333      0.166666666667      0.000000000000
      0.500000000000      0.166666666667      0.000000000000
     -0.333333333333      0.166666666667      0.000000000000
     -0.166666666667      0.166666666667      0.000000000000
      0.000000000000      0.333333333333      0.000000000000
      0.166666666667      0.333333333333      0.000000000000
      0.333333333333      0.333333333333      0.000000000000
      0.500000000000      0.333333333333      0.000000000000
     -0.333333333333      0.333333333333      0.000000000000
     -0.166666666667      0.333333333333      0.000000000000
      0.000000000000      0.500000000000      0.000000000000
      0.166666666667      0.500000000000      0.000000000000
      0.333333333333      0.500000000000      0.000000000000
      0.500000000000      0.500000000000      0.000000000000
     -0.333333333333      0.500000000000      0.000000000000
     -0.166666666667      0.500000000000      0.000000000000
      0.000000000000     -0.333333333333      0.000000000000
      0.166666666667     -0.333333333333      0.000000000000
      0.333333333333     -0.333333333333      0.000000000000
      0.500000000000     -0.333333333333      0.000000000000
     -0.333333333333     -0.333333333333      0.000000000000
     -0.166666666667     -0.333333333333      0.000000000000
      0.000000000000     -0.166666666667      0.000000000000
      0.166666666667     -0.166666666667      0.000000000000
      0.333333333333     -0.166666666667      0.000000000000
      0.500000000000     -0.166666666667      0.000000000000
     -0.333333333333     -0.166666666667      0.000000000000
     -0.166666666667     -0.166666666667      0.000000000000
      0.000000000000      0.000000000000      0.250000000000
      0.166666666667      0.000000000000      0.250000000000
      0.333333333333     -0.000000000000      0.250000000000
      0.500000000000      0.000000000000      0.250000000000
     -0.333333333333      0.000000000000      0.250000000000
     -0.166666666667      0.000000000000      0.250000000000
      0.000000000000      0.166666666667      0.250000000000
      0.166666666667      0.166666666667      0.250000000000
      0.333333333333      0.166666666667      0.250000000000
      0.500000000000      0.166666666667      0.250000000000
     -0.333333333333      0.166666666667      0.250000000000
     -0.166666666667      0.166666666667      0.250000000000
      0.000000000000      0.333333333333      0.250000000000
      0.166666666667      0.333333333333      0.250000000000
      0.333333333333      0.333333333333      0.250000000000
      0.500000000000      0.333333333333      0.250000000000
     -0.333333333333      0.333333333333      0.250000000000
     -0.166666666667      0.333333333333      0.250000000000
      0.000000000000      0.500000000000      0.250000000000
      0.166666666667      0.500000000000      0.250000000000
      0.333333333333      0.500000000000      0.250000000000
      0.500000000000      0.500000000000      0.250000000000
     -0.333333333333      0.500000000000      0.250000000000
     -0.166666666667      0.500000000000      0.250000000000
      0.000000000000     -0.333333333333      0.250000000000
      0.166666666667     -0.333333333333      0.250000000000
      0.333333333333     -0.333333333333      0.250000000000
      0.500000000000     -0.333333333333      0.250000000000
     -0.333333333333     -0.333333333333      0.250000000000
     -0.166666666667     -0.333333333333      0.250000000000
      0.000000000000     -0.166666666667      0.250000000000
      0.166666666667     -0.166666666667      0.250000000000
      0.333333333333     -0.166666666667      0.250000000000
      0.500000000000     -0.166666666667      0.250000000000
     -0.333333333333     -0.166666666667      0.250000000000
     -0.166666666667     -0.166666666667      0.250000000000
      0.000000000000      0.000000000000      0.500000000000
      0.166666666667      0.000000000000      0.500000000000
      0.333333333333     -0.000000000000      0.500000000000
      0.500000000000      0.000000000000      0.500000000000
     -0.333333333333      0.000000000000      0.500000000000
     -0.166666666667      0.000000000000      0.500000000000
      0.000000000000      0.166666666667      0.500000000000
      0.166666666667      0.166666666667      0.500000000000
      0.333333333333      0.166666666667      0.500000000000
      0.500000000000      0.166666666667      0.500000000000
     -0.333333333333      0.166666666667      0.500000000000
     -0.166666666667      0.166666666667      0.500000000000
      0.000000000000      0.333333333333      0.500000000000
      0.166666666667      0.333333333333      0.500000000000
      0.333333333333      0.333333333333      0.500000000000
      0.500000000000      0.333333333333      0.500000000000
     -0.333333333333      0.333333333333      0.500000000000
     -0.166666666667      0.333333333333      0.500000000000
      0.000000000000      0.500000000000      0.500000000000
      0.166666666667      0.500000000000      0.500000000000
      0.333333333333      0.500000000000      0.500000000000
      0.500000000000      0.500000000000      0.500000000000
     -0.333333333333      0.500000000000      0.500000000000
     -0.166666666667      0.500000000000      0.500000000000
      0.000000000000     -0.333333333333      0.500000000000
      0.166666666667     -0.333333333333      0.500000000000
      0.333333333333     -0.333333333333      0.500000000000
      0.500000000000     -0.333333333333      0.500000000000
     -0.333333333333     -0.333333333333      0.500000000000
     -0.166666666667     -0.333333333333      0.500000000000
      0.000000000000     -0.166666666667      0.500000000000
      0.166666666667     -0.166666666667      0.500000000000
      0.333333333333     -0.166666666667      0.500000000000
      0.500000000000     -0.166666666667      0.500000000000
     -0.333333333333     -0.166666666667      0.500000000000
     -0.166666666667     -0.166666666667      0.500000000000
      0.000000000000      0.000000000000     -0.250000000000
      0.166666666667      0.000000000000     -0.250000000000
      0.333333333333     -0.000000000000     -0.250000000000
      0.500000000000      0.000000000000     -0.250000000000
     -0.333333333333      0.000000000000     -0.250000000000
     -0.166666666667      0.000000000000     -0.250000000000
      0.000000000000      0.166666666667     -0.250000000000
      0.166666666667      0.166666666667     -0.250000000000
      0.333333333333      0.166666666667     -0.250000000000
      0.500000000000      0.166666666667     -0.250000000000
     -0.333333333333      0.166666666667     -0.250000000000
     -0.166666666667      0.166666666667     -0.250000000000
      0.000000000000      0.333333333333     -0.250000000000
      0.166666666667      0.333333333333     -0.250000000000
      0.333333333333      0.333333333333     -0.250000000000
      0.500000000000      0.333333333333     -0.250000000000
     -0.333333333333      0.333333333333     -0.250000000000
     -0.166666666667      0.333333333333     -0.250000000000
      0.000000000000      0.500000000000     -0.250000000000
      0.166666666667      0.500000000000     -0.250000000000
      0.333333333333      0.500000000000     -0.250000000000
      0.500000000000      0.500000000000     -0.250000000000
     -0.333333333333      0.500000000000     -0.250000000000
     -0.166666666667      0.500000000000     -0.250000000000
      0.000000000000     -0.333333333333     -0.250000000000
      0.166666666667     -0.333333333333     -0.250000000000
      0.333333333333     -0.333333333333     -0.250000000000
      0.500000000000     -0.333333333333     -0.250000000000
     -0.333333333333     -0.333333333333     -0.250000000000
     -0.166666666667     -0.333333333333     -0.250000000000
      0.000000000000     -0.166666666667     -0.250000000000
      0.166666666667     -0.166666666667     -0.250000000000
      0.333333333333     -0.166666666667     -0.250000000000
      0.500000000000     -0.166666666667     -0.250000000000
     -0.333333333333     -0.166666666667     -0.250000000000
     -0.166666666667     -0.166666666667     -0.250000000000
end kpoints
